Minimize
err

Subject To
layer_1 - layer_2 > 1
layer_2 - layer_3 > 1
layer_3 - layer_4 > 1
layer_4 - layer_5 > 1
particle_1 - particle_2 > 1
particle_2 - particle_3 > 1
particle_3 - particle_4 > 1
particle_4 - particle_5 > 1
particle_5 - particle_6 > 1
particle_6 - particle_7 > 1
particle_7 - particle_8 > 1
particle_8 - particle_9 > 1
particle_9 - particle_10 > 1
particle_10 - particle_11 > 1
particle_11 - particle_12 > 1
particle_12 - particle_13 > 1
particle_13 - particle_14 > 1
particle_14 - particle_15 > 1
particle_15 - particle_16 > 1
particle_16 - particle_17 > 1
particle_17 - particle_18 > 1
particle_18 - particle_19 > 1
particle_19 - particle_20 > 1
particle_20 - particle_21 > 1
particle_21 - particle_22 > 1
particle_22 - particle_23 > 1
particle_23 - particle_24 > 1
particle_24 - particle_25 > 1
particle_25 - particle_26 > 1
particle_26 - particle_27 > 1
particle_27 - particle_28 > 1
particle_28 - particle_29 > 1
particle_29 - particle_30 > 1
particle_30 - particle_31 > 1
particle_31 - particle_32 > 1
particle_32 - particle_33 > 1
particle_33 - particle_34 > 1
particle_34 - particle_35 > 1
particle_35 - particle_36 > 1
particle_36 - particle_37 > 1
particle_37 - particle_38 > 1
particle_38 - particle_39 > 1
particle_39 - particle_40 > 1

layer_1 + particle_1 >= 1598.5

layer_1 + particle_1 - 1598.5
 err <= 1598.5

layer_2 + particle_40 >= 138.9

layer_2 + particle_40 - 138.9
 err <= 138.9

layer_1 + particle_35 >= 322.7

layer_1 + particle_35 - 322.7
 err <= 322.7

layer_3 + particle_18 >= 608.5

layer_3 + particle_18 - 608.5
 err <= 608.5

layer_2 + particle_19 >= 741.4

layer_2 + particle_19 - 741.4
 err <= 741.4

layer_3 + particle_2 >= 956.3

layer_3 + particle_2 - 956.3
 err <= 956.3

layer_1 + particle_22 >= 789.4

layer_1 + particle_22 - 789.4
 err <= 789.4

layer_2 + particle_18 >= 767.5

layer_2 + particle_18 - 767.5
 err <= 767.5

layer_3 + particle_20 >= 563.5

layer_3 + particle_20 - 563.5
 err <= 563.5

layer_3 + layer_5 - 2 layer_4 = 0
particle_2 + particle_4 - 2 particle_3 = 0
particle_3 + particle_5 - 2 particle_4 = 0
particle_4 + particle_6 - 2 particle_5 = 0
particle_5 + particle_7 - 2 particle_6 = 0
particle_6 + particle_8 - 2 particle_7 = 0
particle_7 + particle_9 - 2 particle_8 = 0
particle_8 + particle_10 - 2 particle_9 = 0
particle_9 + particle_11 - 2 particle_10 = 0
particle_10 + particle_12 - 2 particle_11 = 0
particle_11 + particle_13 - 2 particle_12 = 0
particle_12 + particle_14 - 2 particle_13 = 0
particle_13 + particle_15 - 2 particle_14 = 0
particle_14 + particle_16 - 2 particle_15 = 0
particle_15 + particle_17 - 2 particle_16 = 0
particle_16 + particle_18 - 2 particle_17 = 0
particle_20 + particle_22 - 2 particle_21 = 0
particle_22 + particle_24 - 2 particle_23 = 0
particle_23 + particle_25 - 2 particle_24 = 0
particle_24 + particle_26 - 2 particle_25 = 0
particle_25 + particle_27 - 2 particle_26 = 0
particle_26 + particle_28 - 2 particle_27 = 0
particle_27 + particle_29 - 2 particle_28 = 0
particle_28 + particle_30 - 2 particle_29 = 0
particle_29 + particle_31 - 2 particle_30 = 0
particle_30 + particle_32 - 2 particle_31 = 0
particle_31 + particle_33 - 2 particle_32 = 0
particle_32 + particle_34 - 2 particle_33 = 0
particle_33 + particle_35 - 2 particle_34 = 0
particle_35 + particle_37 - 2 particle_36 = 0
particle_36 + particle_38 - 2 particle_37 = 0
particle_37 + particle_39 - 2 particle_38 = 0
particle_38 + particle_40 - 2 particle_39 = 0
End